tsp_instances/TSP20/instance85.tsp
NODE_COORD_SECTION
0 80 27
1 3 170
2 109 99
3 185 177
4 119 189
5 24 188
6 65 19
7 43 121
8 26 188
9 65 102
10 111 48
11 190 34
12 126 75
13 79 157
14 59 64
15 17 177
16 73 119
17 51 46
18 176 126
19 8 63
