tsp_instances/TSP20/instance85.opt.tour
TOUR_SECTION
1
7
18
20
15
10
17
8
2
16
6
9
14
5
4
19
12
13
3
11
-1